sat
(:added-eqs                       785
 :arith-eq-adapter                94
 :arith-bound-propagations-lp     27
 :arith-conflicts                 118
 :arith-diseq                     138
 :arith-fixed-eqs                 38
 :arith-gcd-calls                 21
 :arith-grobner-calls             21
 :arith-grobner-conflicts         7
 :arith-horner-calls              4
 :arith-horner-cross-nested-forms 1487
 :arith-lower                     438
 :arith-make-feasible             321
 :arith-max-columns               275
 :arith-max-rows                  97
 :arith-nla-add-bounds            3
 :arith-nla-lemmas                62
 :arith-nla-propagate-bounds      43
 :arith-nla-propagate-eq          139
 :arith-nra-calls                 16
 :arith-offset-eqs                13
 :arith-patches                   21
 :arith-patches-success           21
 :arith-upper                     881
 :binary-propagations             1955
 :conflicts                       32
 :decisions                       2915
 :del-clause                      50
 :elim-unconstrained              34
 :final-checks                    55
 :max-memory                      21.88
 :memory                          18.84
 :minimized-lits                  1
 :mk-bool-var                     702
 :mk-clause                       264
 :mk-clause-binary                5522
 :nlsat-conflicts                 1010
 :nlsat-decisions                 39
 :nlsat-propagations              31406
 :nlsat-restarts                  2
 :nlsat-stages                    16358
 :num-allocs                      17897348
 :num-checks                      1
 :propagations                    2387
 :rlimit-count                    527824
 :time                            0.17
 :total-time                      0.19)
